VALUE 2309
82 83
82 205
83 84
84 85
85 86
86 87
87 88
88 89
89 90
90 91
91 92
92 93
93 212
101 102
101 222
102 103
103 104
104 105
105 106
106 107
107 225
111 112
111 229
112 113
113 114
114 232
145 146
145 268
146 147
147 269
160 161
160 283
161 162
162 163
163 164
164 165
165 166
166 167
167 168
168 169
169 170
170 171
171 172
172 295
201 327
201 202
202 203
203 204
204 205
212 213
213 214
214 215
215 216
216 217
217 218
218 219
219 220
220 221
221 222
225 226
226 227
227 228
228 229
232 359
241 242
242 243
243 244
244 245
245 246
246 247
247 248
248 249
249 376
268 397
269 270
270 271
271 272
272 273
273 274
274 275
275 276
276 277
277 278
278 279
279 406
281 409
281 282
282 283
295 422
323 324
323 454
324 325
325 326
326 327
359 487
376 377
377 378
378 379
379 380
380 381
381 382
382 383
383 384
384 385
385 386
386 387
387 388
388 389
389 390
390 391
391 392
392 393
393 394
394 395
395 396
396 397
406 407
407 408
408 409
422 423
423 424
424 425
425 426
426 427
427 428
428 429
429 430
430 431
431 432
432 433
433 434
434 435
435 436
436 437
437 438
438 439
439 440
440 441
441 442
442 443
443 444
444 445
445 446
446 447
447 448
448 449
449 450
450 451
451 452
452 453
453 454
609 487
609 734
734 857
857 858
858 976
1095 976
1095 1215
1215 1347
1347 1473
1601 1473
1601 1723
1723 1841
1841 1969
2083 1969
2083 2213
2213 2332
2332 2433
2433 2555
2676 2778
2676 2555
2778 2890
2890 3013
2895 2896
2895 3018
2896 2897
2897 3019
3008 3009
3009 3010
3010 3011
3011 3012
3012 3013
3013 3014
3014 3015
3015 3016
3016 3017
3017 3018
3123 3008
3123 3246
3244 3376
3244 3245
3245 3246
3376 3490
3488 3489
3489 3490
3609 3610
3609 3740
3610 3611
3611 3488
3740 3862
3862 3986
3948 3949
3948 4077
3949 3950
3950 3951
3951 3952
3952 3953
3953 3954
3954 3955
3955 3956
3956 3957
3957 3958
3958 3959
3959 3960
3960 3961
3961 3962
3962 3963
3963 3964
3964 3965
3965 3966
3966 3967
3967 3968
3968 3969
3969 3970
3970 3971
3971 3972
3972 3973
3973 3974
3974 3975
3975 3976
3985 3986
4099 4100
4099 3976
4100 4101
4101 4210
4101 4102
4102 4103
4103 4104
4104 4105
4105 4106
4106 4107
4107 4108
4108 3985
4188 4305
4188 4189
4189 4190
4190 4077
4210 4330
4305 4418
4330 4446
4409 4529
4409 4410
4410 4411
4411 4412
4412 4413
4413 4414
4414 4415
4415 4416
4416 4417
4417 4418
4446 4566
4524 4525
4525 4526
4526 4527
4527 4528
4528 4529
4641 4642
4641 4765
4642 4643
4643 4644
4644 4645
4645 4646
4646 4647
4647 4648
4648 4649
4649 4524
4689 4806
4689 4566
4754 4755
4754 4877
4755 4756
4756 4757
4757 4758
4758 4759
4759 4760
4760 4761
4761 4762
4762 4763
4763 4764
4764 4765
4806 4937
4874 4992
4874 4875
4875 4876
4876 4877
4934 4935
4935 4936
4936 4937
4992 5113
5236 5352
5236 5113
5348 5472
5348 5349
5349 5350
5350 5351
5351 5352
5467 5595
5467 5468
5468 5469
5469 5470
5470 5471
5471 5472
5588 5589
5589 5590
5590 5591
5591 5592
5592 5593
5593 5594
5594 5595
5701 5826
5701 5702
5702 5703
5703 5704
5704 5705
5705 5706
5706 5707
5707 5708
5708 5709
5709 5710
5710 5588
5826 5941
5939 6048
5939 5940
5940 5941
6168 6169
6169 6170
6170 6048